m = 4; % number of couriers
n = 7; % number of packages

l = [12, 9, 12, 8]; % maximum carriable weight per courier
s = [5, 3, 2, 6, 6, 5, 2]; % weight of each package

D = % distance matrix 
	 [| 8, 7, 4, 2, 3, 6, 8, 7
	 | 3, 7, 4, 3, 7, 6, 4, 5
	 | 6, 2, 4, 6, 6, 8, 6, 8
	 | 5, 8, 2, 4, 7, 5, 4, 8
	 | 5, 4, 6, 2, 2, 5, 6, 8
	 | 4, 3, 4, 6, 7, 7, 5, 6
	 | 6, 2, 3, 7, 6, 4, 8, 2
	 | 5, 7, 3, 6, 8, 3, 7, 6
	 |];